24909 25445
63695 51321
5934 9564
42621 55108
60446 771
61835 30668
34528 55011
47320 17007
14041 540
21379 7088
34360 3297
48580 35370
35808 38649
36236 4775
62669 49576
7966 56823
16828 26894
22869 12270
57847 65462
35917 61728
26017 11490
20202 47169
57523 43514
6720 10896
8538 46562
15496 28513
41330 5461
42927 43310
12558 49491
64358 19608
18083 37884
59410 41334
62727 19269
44462 797
29547 6653
59162 4360
14173 55875
23339 34560
60827 57246
